(set-info :smt-lib-version 2.6)
(set-logic QF_LRA)
(set-info :source |
The Formal Verification of a Reintegration Protocol. Author: Lee Pike. Website: http://www.cs.indiana.edu/~lepike/pub_pages/emsoft.html.

This benchmark was automatically translated into SMT-LIB format from
CVC format using CVC Lite
|)
(set-info :category "industrial")
(set-info :status unsat)
(declare-fun x_0 () Real)
(declare-fun x_1 () Bool)
(declare-fun x_2 () Bool)
(declare-fun x_3 () Real)
(declare-fun x_4 () Bool)
(declare-fun x_5 () Bool)
(declare-fun x_6 () Real)
(declare-fun x_7 () Bool)
(declare-fun x_8 () Bool)
(declare-fun x_9 () Bool)
(declare-fun x_10 () Bool)
(declare-fun x_11 () Bool)
(declare-fun x_12 () Bool)
(declare-fun x_13 () Bool)
(declare-fun x_14 () Bool)
(declare-fun x_15 () Real)
(declare-fun x_16 () Real)
(declare-fun x_17 () Real)
(declare-fun x_18 () Real)
(declare-fun x_19 () Real)
(declare-fun x_20 () Bool)
(declare-fun x_21 () Bool)
(declare-fun x_22 () Bool)
(declare-fun x_23 () Bool)
(declare-fun x_24 () Bool)
(declare-fun x_25 () Bool)
(declare-fun x_26 () Real)
(declare-fun x_27 () Real)
(declare-fun x_28 () Real)
(declare-fun x_29 () Real)
(declare-fun x_30 () Bool)
(declare-fun x_31 () Bool)
(declare-fun x_32 () Bool)
(declare-fun x_33 () Bool)
(declare-fun x_34 () Bool)
(declare-fun x_35 () Bool)
(declare-fun x_36 () Real)
(declare-fun x_37 () Real)
(declare-fun x_38 () Real)
(declare-fun x_39 () Real)
(declare-fun x_40 () Bool)
(declare-fun x_41 () Bool)
(declare-fun x_42 () Bool)
(declare-fun x_43 () Real)
(declare-fun x_44 () Bool)
(declare-fun x_45 () Bool)
(declare-fun x_46 () Bool)
(declare-fun x_47 () Bool)
(declare-fun x_48 () Bool)
(declare-fun x_49 () Real)
(declare-fun x_50 () Real)
(declare-fun x_51 () Real)
(declare-fun x_52 () Real)
(declare-fun x_53 () Real)
(declare-fun x_54 () Bool)
(declare-fun x_55 () Bool)
(declare-fun x_56 () Bool)
(declare-fun x_57 () Bool)
(declare-fun x_58 () Bool)
(declare-fun x_59 () Bool)
(declare-fun x_60 () Bool)
(declare-fun x_61 () Bool)
(declare-fun x_62 () Real)
(declare-fun x_63 () Real)
(declare-fun x_64 () Real)
(declare-fun x_65 () Real)
(declare-fun x_66 () Real)
(declare-fun x_67 () Real)
(declare-fun x_68 () Real)
(declare-fun x_69 () Real)
(declare-fun x_70 () Real)
(declare-fun x_71 () Real)
(declare-fun x_72 () Real)
(declare-fun x_73 () Real)
(declare-fun x_74 () Real)
(declare-fun x_75 () Real)
(declare-fun x_76 () Real)
(declare-fun x_77 () Real)
(declare-fun x_78 () Real)
(declare-fun x_79 () Bool)
(declare-fun x_80 () Real)
(declare-fun x_81 () Real)
(declare-fun x_82 () Real)
(declare-fun x_83 () Bool)
(declare-fun x_84 () Bool)
(declare-fun x_85 () Bool)
(declare-fun x_86 () Bool)
(declare-fun x_87 () Real)
(declare-fun x_88 () Real)
(declare-fun x_89 () Real)
(declare-fun x_90 () Real)
(declare-fun x_91 () Real)
(declare-fun x_92 () Real)
(declare-fun x_93 () Real)
(declare-fun x_94 () Real)
(declare-fun x_95 () Real)
(declare-fun x_96 () Real)
(declare-fun x_97 () Bool)
(declare-fun x_98 () Real)
(declare-fun x_99 () Real)
(declare-fun x_100 () Real)
(declare-fun x_101 () Bool)
(declare-fun x_102 () Bool)
(declare-fun x_103 () Bool)
(declare-fun x_104 () Bool)
(declare-fun x_105 () Real)
(declare-fun x_106 () Real)
(declare-fun x_107 () Real)
(declare-fun x_108 () Real)
(declare-fun x_109 () Real)
(declare-fun x_110 () Real)
(declare-fun x_111 () Real)
(declare-fun x_112 () Real)
(declare-fun x_113 () Real)
(declare-fun x_114 () Real)
(declare-fun x_115 () Bool)
(declare-fun x_116 () Real)
(declare-fun x_117 () Real)
(declare-fun x_118 () Real)
(assert (let ((?v_184 (+ x_18 x_19)) (?v_225 (<= x_15 x_29)) (?v_207 (= x_20 x_9)) (?v_159 (= x_3 0)) (?v_171 (< x_15 x_53)) (?v_192 (= x_29 x_15)) (?v_208 (= x_3 2)) (?v_216 (= x_54 x_55)) (?v_217 (and (= x_4 x_1) (= x_5 x_2))) (?v_205 (= x_56 x_57)) (?v_206 (and (= x_58 x_59) (= x_60 x_61))) (?v_218 (= x_62 x_63)) (?v_219 (and (= x_64 x_65) (= x_66 x_67))) (?v_181 (= x_68 x_53)) (?v_204 (= x_21 x_10)) (?v_202 (= x_25 x_14)) (?v_203 (and (= x_23 x_12) (= x_24 x_13))) (?v_220 (= x_22 x_11)) (?v_224 (- x_26 x_18)) (?v_160 (= x_3 1)) (?v_199 (+ x_19 x_18)) (?v_195 (<= x_69 x_29))) (let ((?v_201 (= x_54 (or x_55 (and ?v_195 x_14)))) (?v_188 (<= x_16 ?v_184)) (?v_190 (<= x_17 ?v_184)) (?v_187 (<= x_16 x_19)) (?v_189 (<= x_17 x_19)) (?v_22 (not x_1)) (?v_209 (< x_16 x_15)) (?v_210 (= x_29 x_16)) (?v_23 (not x_2)) (?v_211 (< x_17 x_15)) (?v_212 (= x_29 x_17)) (?v_174 (not x_55)) (?v_227 (not ?v_225)) (?v_25 (not x_12)) (?v_26 (not x_13)) (?v_185 (not x_14))) (let ((?v_182 (not ?v_187))) (let ((?v_193 (and ?v_182 (<= x_16 x_29))) (?v_183 (not ?v_189))) (let ((?v_194 (and ?v_183 (<= x_17 x_29)))) (let ((?v_200 (and (= x_4 (or x_1 (and ?v_193 x_12))) (= x_5 (or x_2 (and ?v_194 x_13))))) (?v_191 (<= x_69 ?v_184)) (?v_213 (< x_69 x_15)) (?v_214 (= x_29 x_69)) (?v_196 (not ?v_188)) (?v_197 (not ?v_190)) (?v_28 (and (not (<= x_69 x_19)) ?v_195)) (?v_29 (and (not (<= x_72 x_19)) (<= x_72 x_29)))) (let ((?v_198 (not ?v_191)) (?v_122 (+ x_18 x_29)) (?v_163 (<= x_26 x_39)) (?v_145 (= x_30 x_20)) (?v_99 (= x_6 0)) (?v_109 (< x_26 x_68)) (?v_130 (= x_39 x_26)) (?v_146 (= x_6 2)) (?v_154 (= x_83 x_54)) (?v_155 (and (= x_7 x_4) (= x_8 x_5))) (?v_143 (= x_84 x_56)) (?v_144 (and (= x_85 x_58) (= x_86 x_60))) (?v_156 (= x_87 x_62)) (?v_157 (and (= x_88 x_64) (= x_89 x_66))) (?v_119 (= x_90 x_68)) (?v_142 (= x_31 x_21)) (?v_140 (= x_35 x_25)) (?v_141 (and (= x_33 x_23) (= x_34 x_24))) (?v_158 (= x_32 x_22)) (?v_162 (- x_36 x_18)) (?v_100 (= x_6 1)) (?v_137 (+ x_29 x_18)) (?v_133 (<= x_80 x_39))) (let ((?v_139 (= x_83 (or x_54 (and ?v_133 x_25)))) (?v_126 (<= x_27 ?v_122)) (?v_128 (<= x_28 ?v_122)) (?v_125 (<= x_27 x_29)) (?v_127 (<= x_28 x_29)) (?v_15 (not x_4)) (?v_147 (< x_27 x_26)) (?v_148 (= x_39 x_27)) (?v_16 (not x_5)) (?v_149 (< x_28 x_26)) (?v_150 (= x_39 x_28)) (?v_112 (not x_54)) (?v_165 (not ?v_163)) (?v_18 (not x_23)) (?v_19 (not x_24)) (?v_123 (not x_25))) (let ((?v_120 (not ?v_125))) (let ((?v_131 (and ?v_120 (<= x_27 x_39))) (?v_121 (not ?v_127))) (let ((?v_132 (and ?v_121 (<= x_28 x_39)))) (let ((?v_138 (and (= x_7 (or x_4 (and ?v_131 x_23))) (= x_8 (or x_5 (and ?v_132 x_24))))) (?v_129 (<= x_80 ?v_122)) (?v_151 (< x_80 x_26)) (?v_152 (= x_39 x_80)) (?v_134 (not ?v_126)) (?v_135 (not ?v_128)) (?v_228 (not (<= x_80 x_29)))) (let ((?v_34 (and ?v_228 ?v_133)) (?v_229 (not (<= x_81 x_29)))) (let ((?v_35 (and ?v_229 (<= x_81 x_39))) (?v_136 (not ?v_129)) (?v_63 (+ x_18 x_39)) (?v_103 (<= x_36 x_52)) (?v_85 (= x_40 x_30)) (?v_45 (= x_43 0)) (?v_49 (< x_36 x_90)) (?v_70 (= x_52 x_36)) (?v_86 (= x_43 2)) (?v_94 (= x_101 x_83)) (?v_95 (and (= x_47 x_7) (= x_48 x_8))) (?v_83 (= x_102 x_84)) (?v_84 (and (= x_103 x_85) (= x_104 x_86))) (?v_96 (= x_105 x_87)) (?v_97 (and (= x_106 x_88) (= x_107 x_89))) (?v_59 (= x_108 x_90)) (?v_82 (= x_41 x_31)) (?v_80 (= x_46 x_35)) (?v_81 (and (= x_44 x_33) (= x_45 x_34))) (?v_98 (= x_42 x_32)) (?v_102 (- x_49 x_18)) (?v_60 (= x_43 1)) (?v_77 (+ x_39 x_18)) (?v_73 (<= x_98 x_52))) (let ((?v_79 (= x_101 (or x_83 (and ?v_73 x_35)))) (?v_66 (<= x_37 ?v_63)) (?v_68 (<= x_38 ?v_63)) (?v_65 (<= x_37 x_39)) (?v_67 (<= x_38 x_39)) (?v_8 (not x_7)) (?v_87 (< x_37 x_36)) (?v_88 (= x_52 x_37)) (?v_9 (not x_8)) (?v_89 (< x_38 x_36)) (?v_90 (= x_52 x_38)) (?v_52 (not x_83)) (?v_105 (not ?v_103)) (?v_11 (not x_33)) (?v_12 (not x_34)) (?v_64 (not x_35))) (let ((?v_61 (not ?v_65))) (let ((?v_71 (and ?v_61 (<= x_37 x_52))) (?v_62 (not ?v_67))) (let ((?v_72 (and ?v_62 (<= x_38 x_52)))) (let ((?v_78 (and (= x_47 (or x_7 (and ?v_71 x_33))) (= x_48 (or x_8 (and ?v_72 x_34))))) (?v_69 (<= x_98 ?v_63)) (?v_91 (< x_98 x_36)) (?v_92 (= x_52 x_98)) (?v_74 (not ?v_66)) (?v_75 (not ?v_68)) (?v_166 (not (<= x_98 x_39)))) (let ((?v_40 (and ?v_166 ?v_73)) (?v_167 (not (<= x_99 x_39)))) (let ((?v_41 (and ?v_167 (<= x_99 x_52))) (?v_76 (not ?v_69)) (?v_180 (= x_62 0)) (?v_170 (= x_62 3)) (?v_176 (= x_64 0)) (?v_168 (= x_64 3)) (?v_178 (= x_66 0)) (?v_169 (= x_66 3)) (?v_118 (= x_87 0)) (?v_108 (= x_87 3)) (?v_114 (= x_88 0)) (?v_106 (= x_88 3)) (?v_116 (= x_89 0)) (?v_107 (= x_89 3)) (?v_58 (= x_105 0)) (?v_48 (= x_105 3)) (?v_54 (= x_106 0)) (?v_46 (= x_106 3)) (?v_56 (= x_107 0)) (?v_47 (= x_107 3)) (?v_6 (not ?v_100)) (?v_10 (and ?v_8 ?v_9)) (?v_13 (not ?v_160)) (?v_17 (and ?v_15 ?v_16)) (?v_222 (= x_0 1))) (let ((?v_20 (not ?v_222)) (?v_24 (and ?v_22 ?v_23)) (?v_0 (not ?v_45)) (?v_1 (not ?v_60)) (?v_4 (not x_44)) (?v_5 (not x_45)) (?v_2 (not x_47)) (?v_3 (not x_48)) (?v_101 (not (<= x_49 x_50))) (?v_104 (not (<= x_49 x_51))) (?v_7 (not ?v_99)) (?v_161 (not (<= x_36 x_37))) (?v_164 (not (<= x_36 x_38))) (?v_14 (not ?v_159)) (?v_223 (not (<= x_26 x_27))) (?v_226 (not (<= x_26 x_28))) (?v_221 (= x_0 0))) (let ((?v_21 (not ?v_221)) (?v_30 (and (not (<= x_75 x_19)) (<= x_75 x_29))) (?v_36 (and (not (<= x_82 x_29)) (<= x_82 x_39))) (?v_42 (and (not (<= x_100 x_39)) (<= x_100 x_52))) (?v_50 (= x_106 (ite ?v_8 (ite (and ?v_71 (< x_88 3)) (+ x_88 1) x_88) x_88))) (?v_51 (= x_107 (ite ?v_9 (ite (and ?v_72 (< x_89 3)) (+ x_89 1) x_89) x_89))) (?v_53 (or x_7 ?v_46)) (?v_55 (or x_8 ?v_47)) (?v_57 (or x_83 ?v_48)) (?v_124 (not x_32)) (?v_110 (= x_88 (ite ?v_15 (ite (and ?v_131 (< x_64 3)) (+ x_64 1) x_64) x_64))) (?v_111 (= x_89 (ite ?v_16 (ite (and ?v_132 (< x_66 3)) (+ x_66 1) x_66) x_66))) (?v_113 (or x_4 ?v_106)) (?v_115 (or x_5 ?v_107)) (?v_117 (or x_54 ?v_108)) (?v_186 (not x_22)) (?v_172 (= x_64 (ite ?v_22 (ite (and ?v_193 (< x_65 3)) (+ x_65 1) x_65) x_65))) (?v_173 (= x_66 (ite ?v_23 (ite (and ?v_194 (< x_67 3)) (+ x_67 1) x_67) x_67))) (?v_175 (or x_1 ?v_168)) (?v_177 (or x_2 ?v_169)) (?v_179 (or x_55 ?v_170)) (?v_27 (ite ?v_28 2 1)) (?v_31 (ite ?v_28 3 2)) (?v_32 (ite ?v_28 1 0)) (?v_33 (ite ?v_34 2 1)) (?v_37 (ite ?v_34 3 2)) (?v_38 (ite ?v_34 1 0)) (?v_39 (ite ?v_40 2 1)) (?v_43 (ite ?v_40 3 2)) (?v_44 (ite ?v_40 1 0)) (?v_93 (<= (ite x_84 (ite x_86 (ite x_85 3 2) x_109) (ite x_86 x_109 (ite x_85 1 0))) (* (* (ite x_83 (ite x_8 (ite x_7 0 1) x_110) (ite x_8 x_110 (ite x_7 2 3))) 1) (/ 1 2)))) (?v_153 (<= (ite x_56 (ite x_60 (ite x_58 3 2) x_91) (ite x_60 x_91 (ite x_58 1 0))) (* (* (ite x_54 (ite x_5 (ite x_4 0 1) x_92) (ite x_5 x_92 (ite x_4 2 3))) 1) (/ 1 2)))) (?v_215 (<= (ite x_57 (ite x_61 (ite x_59 3 2) x_70) (ite x_61 x_70 (ite x_59 1 0))) (* (* (ite x_55 (ite x_2 (ite x_1 0 1) x_71) (ite x_2 x_71 (ite x_1 2 3))) 1) (/ 1 2))))) (and (and (and (and (and (and (and (and (and (and (and (and (and (and (and (and (and (and (and (and (and (and (and (and (and (and (and (and (and (and (and (and (and (and (and (and (and (and (and (and (and (and (and (and (and (and (and (and (and (and (and (and (and (and (and (and (and (and (and (and (and (and (and (and (and (and (and (and (and (and (and (and (and (and (and (and (and (and (and (and (and (and (and (and (and (and (and (and (and (and (and (and (and (and (and (and (and (and (and (and (and (and (and (and (and (and (and (and (and (and (and (and (and (and (and (and (and (and (and (and (and (and (and (and (and (and (and (and (and (and (and (and (and (and (and (and (and (and (and (and (and (and (and (and (and (and (and (and (and (and (and (and (and (and (and (and (and (and (and (and (and (and (and (and (<= x_43 2) (>= x_43 0)) (<= x_6 2)) (>= x_6 0)) (<= x_3 2)) (>= x_3 0)) (<= x_0 2)) (>= x_0 0)) (>= x_15 0)) (>= x_16 0)) (>= x_17 0)) (> x_18 0)) (>= x_18 0)) (>= x_19 0)) (>= x_26 0)) (>= x_27 0)) (>= x_28 0)) (>= x_29 0)) (>= x_36 0)) (>= x_37 0)) (>= x_38 0)) (>= x_39 0)) (>= x_49 0)) (>= x_50 0)) (>= x_51 0)) (>= x_52 0)) (>= x_53 0)) (or (or (or ?v_180 (= x_62 1)) (= x_62 2)) ?v_170)) (not (< x_62 0))) (<= x_62 3)) (or (or (or (= x_63 0) (= x_63 1)) (= x_63 2)) (= x_63 3))) (not (< x_63 0))) (<= x_63 3)) (or (or (or ?v_176 (= x_64 1)) (= x_64 2)) ?v_168)) (not (< x_64 0))) (<= x_64 3)) (or (or (or (= x_65 0) (= x_65 1)) (= x_65 2)) (= x_65 3))) (not (< x_65 0))) (<= x_65 3)) (or (or (or ?v_178 (= x_66 1)) (= x_66 2)) ?v_169)) (not (< x_66 0))) (<= x_66 3)) (or (or (or (= x_67 0) (= x_67 1)) (= x_67 2)) (= x_67 3))) (not (< x_67 0))) (<= x_67 3)) (>= x_68 0)) (>= x_69 0)) (>= x_72 0)) (>= x_75 0)) (not (<= x_78 (* x_18 3)))) (>= x_78 0)) (>= x_80 0)) (>= x_81 0)) (>= x_82 0)) (or (or (or ?v_118 (= x_87 1)) (= x_87 2)) ?v_108)) (not (< x_87 0))) (<= x_87 3)) (or (or (or ?v_114 (= x_88 1)) (= x_88 2)) ?v_106)) (not (< x_88 0))) (<= x_88 3)) (or (or (or ?v_116 (= x_89 1)) (= x_89 2)) ?v_107)) (not (< x_89 0))) (<= x_89 3)) (>= x_90 0)) (>= x_98 0)) (>= x_99 0)) (>= x_100 0)) (or (or (or ?v_58 (= x_105 1)) (= x_105 2)) ?v_48)) (not (< x_105 0))) (<= x_105 3)) (or (or (or ?v_54 (= x_106 1)) (= x_106 2)) ?v_46)) (not (< x_106 0))) (<= x_106 3)) (or (or (or ?v_56 (= x_107 1)) (= x_107 2)) ?v_47)) (not (< x_107 0))) (<= x_107 3)) (>= x_108 0)) (>= x_116 0)) (>= x_117 0)) (>= x_118 0)) (or ?v_6 ?v_10)) (or ?v_13 ?v_17)) (or ?v_20 ?v_24)) (or ?v_0 (and x_42 x_40))) (or ?v_1 (and x_41 x_40))) (or (not ?v_86) (and x_41 x_42))) (or ?v_0 (and (and ?v_4 ?v_5) (not x_46)))) (or ?v_1 (and (or x_44 ?v_2) (or x_45 ?v_3)))) (or ?v_0 (and ?v_2 ?v_3))) ?v_101) ?v_104) (< (- x_49 x_50) x_18)) (< (- x_49 x_51) x_18)) (or (or x_42 (<= x_52 ?v_102)) (and (or (or ?v_4 (= x_52 x_50)) (not (<= x_52 x_50))) (or (or ?v_5 (= x_52 x_51)) (not (<= x_52 x_51)))))) (or ?v_7 (and x_32 x_30))) (or ?v_6 (and x_31 x_30))) (or (not ?v_146) (and x_31 x_32))) (or ?v_7 (and (and ?v_11 ?v_12) ?v_64))) (or ?v_6 (and (or x_33 ?v_8) (or x_34 ?v_9)))) (or ?v_7 ?v_10)) ?v_161) ?v_164) (< (- x_36 x_37) x_18)) (< (- x_36 x_38) x_18)) (or (or x_32 (<= x_39 ?v_162)) (and (or (or ?v_11 (= x_39 x_37)) (not (<= x_39 x_37))) (or (or ?v_12 (= x_39 x_38)) (not (<= x_39 x_38)))))) (or ?v_14 (and x_22 x_20))) (or ?v_13 (and x_21 x_20))) (or (not ?v_208) (and x_21 x_22))) (or ?v_14 (and (and ?v_18 ?v_19) ?v_123))) (or ?v_13 (and (or x_23 ?v_15) (or x_24 ?v_16)))) (or ?v_14 ?v_17)) ?v_223) ?v_226) (< (- x_26 x_27) x_18)) (< (- x_26 x_28) x_18)) (or (or x_22 (<= x_29 ?v_224)) (and (or (or ?v_18 (= x_29 x_27)) (not (<= x_29 x_27))) (or (or ?v_19 (= x_29 x_28)) (not (<= x_29 x_28)))))) (or ?v_21 (and x_11 x_9))) (or ?v_20 (and x_10 x_9))) (or (not (= x_0 2)) (and x_10 x_11))) (or ?v_21 (and (and ?v_25 ?v_26) ?v_185))) (or ?v_20 (and (or x_12 ?v_22) (or x_13 ?v_23)))) (or ?v_21 ?v_24)) (not (<= x_15 x_16))) (not (<= x_15 x_17))) (< (- x_15 x_16) x_18)) (< (- x_15 x_17) x_18)) (or (or x_11 (<= x_19 (- x_15 x_18))) (and (or (or ?v_25 (= x_19 x_16)) (not (<= x_19 x_16))) (or (or ?v_26 (= x_19 x_17)) (not (<= x_19 x_17)))))) (= x_70 (ite x_59 2 1))) (= x_71 (ite x_1 1 2))) (= x_73 ?v_27)) (= x_74 ?v_27)) (= x_76 (+ (ite ?v_30 (ite ?v_29 ?v_31 x_73) (ite ?v_29 x_73 ?v_32)) x_63))) (= x_77 (+ (ite ?v_30 (ite ?v_29 ?v_31 x_74) (ite ?v_29 x_74 ?v_32)) x_63))) (= x_91 (ite x_58 2 1))) (= x_92 (ite x_4 1 2))) (= x_93 ?v_33)) (= x_94 ?v_33)) (= x_95 (+ (ite ?v_36 (ite ?v_35 ?v_37 x_93) (ite ?v_35 x_93 ?v_38)) x_62))) (= x_96 (+ (ite ?v_36 (ite ?v_35 ?v_37 x_94) (ite ?v_35 x_94 ?v_38)) x_62))) (= x_109 (ite x_85 2 1))) (= x_110 (ite x_7 1 2))) (= x_111 ?v_39)) (= x_112 ?v_39)) (= x_113 (+ (ite ?v_42 (ite ?v_41 ?v_43 x_111) (ite ?v_41 x_111 ?v_44)) x_87))) (= x_114 (+ (ite ?v_42 (ite ?v_41 ?v_43 x_112) (ite ?v_41 x_112 ?v_44)) x_87))) (or (or (and (and (and (and (and (and (or (and (and (and (and (and (and (and (and (and (and ?v_45 ?v_49) ?v_70) ?v_50) ?v_51) (= x_105 (ite ?v_52 (ite (not (< x_113 3)) 3 x_113) x_87))) (= x_47 ?v_53)) (= x_48 ?v_55)) (= x_101 ?v_57)) ?v_82) ?v_59) (and (and (and (and (and (and (and (and (and (and ?v_45 (not ?v_49)) x_41) (= x_52 x_90)) ?v_50) ?v_51) (= x_105 (ite ?v_52 (ite (not (< x_114 3)) 3 x_114) x_87))) (= x_47 (or ?v_53 ?v_54))) (= x_48 (or ?v_55 ?v_56))) (= x_101 (or ?v_57 ?v_58))) ?v_59)) ?v_80) ?v_81) ?v_98) ?v_83) ?v_84) ?v_85) (and (and (and (and (and (and (and (or (and (and (and (and (and (and (and (and (and (and (and ?v_60 (or (or (and (and (and ?v_61 ?v_8) ?v_11) ?v_66) (and (and (and ?v_62 ?v_9) ?v_12) ?v_68)) (and (and ?v_52 ?v_64) ?v_69))) (not x_42)) (or (or (or (or ?v_65 ?v_74) x_33) x_7) (not (< x_52 x_37)))) (or (or (or (or ?v_67 ?v_75) x_34) x_8) (not (< x_52 x_38)))) (or (or (or ?v_76 x_35) x_83) (not (< x_52 x_98)))) (or (or (or (and (and (and (and ?v_11 ?v_8) ?v_66) ?v_87) ?v_88) (and (and (and (and ?v_12 ?v_9) ?v_68) ?v_89) ?v_90)) (and (and (and (and ?v_64 ?v_52) ?v_69) ?v_91) ?v_92)) (and (< x_36 ?v_77) ?v_70))) (= x_44 (or x_33 ?v_71))) (= x_45 (or x_34 ?v_72))) (= x_46 (or x_35 ?v_73))) ?v_78) ?v_79) (and (and (and (and (and (and (and (and (and ?v_60 (or (or (or ?v_65 x_33) x_7) ?v_74)) (or (or (or ?v_67 x_34) x_8) ?v_75)) (or (or x_35 x_83) ?v_76)) x_42) (= x_52 ?v_77)) ?v_78) ?v_79) ?v_80) ?v_81)) ?v_96) ?v_97) ?v_59) ?v_82) ?v_83) ?v_84) ?v_85)) (and (and (and (and (and (and (and (or (and (and (and (and (and (and (and (and (and (and (and ?v_86 ?v_93) (not x_40)) (or (or (or ?v_65 x_85) x_7) (<= x_52 x_37))) (or (or (or ?v_67 x_86) x_8) (<= x_52 x_38))) (or (or x_84 x_83) (<= x_52 x_98))) (or (or (or (and (and (and (and (not x_85) ?v_8) (< x_39 x_37)) ?v_87) ?v_88) (and (and (and (and (not x_86) ?v_9) (< x_39 x_38)) ?v_89) ?v_90)) (and (and (and (not x_84) ?v_52) ?v_91) ?v_92)) ?v_70)) (= x_103 (or x_85 (= x_37 x_52)))) (= x_104 (or x_86 (= x_38 x_52)))) (= x_102 (or x_84 (= x_98 x_52)))) ?v_94) ?v_95) (and (and (and (and (and (and (and ?v_86 (not ?v_93)) x_40) ?v_94) ?v_95) (= x_52 x_39)) ?v_83) ?v_84)) ?v_96) ?v_97) ?v_59) ?v_82) ?v_80) ?v_81) ?v_98))) (or (or (and ?v_99 (= x_43 (ite (not x_31) x_6 1))) (and ?v_100 (= x_43 (ite ?v_124 x_6 2)))) (and (and ?v_7 ?v_6) (= x_43 x_6)))) (or (and (and ?v_103 ?v_101) (not (<= x_50 ?v_102))) (and ?v_105 (= x_50 x_37)))) (or (and (and ?v_103 ?v_104) (not (<= x_51 ?v_102))) (and ?v_105 (= x_51 x_38)))) (or (and (and ?v_103 (= x_49 (+ x_36 x_78))) x_115) (and (and ?v_105 (not x_115)) (= x_49 x_36)))) (or (and (and (and (and ?v_73 (not (<= x_116 x_52))) (not (<= x_117 x_52))) (< x_116 x_117)) (< x_117 x_118)) (and (and (and (not ?v_73) (= x_116 x_98)) (= x_117 x_99)) (= x_118 x_100)))) (or (or (and (and (and (and (and (and (or (and (and (and (and (and (and (and (and (and (and ?v_99 ?v_109) ?v_130) ?v_110) ?v_111) (= x_87 (ite ?v_112 (ite (not (< x_95 3)) 3 x_95) x_62))) (= x_7 ?v_113)) (= x_8 ?v_115)) (= x_83 ?v_117)) ?v_142) ?v_119) (and (and (and (and (and (and (and (and (and (and ?v_99 (not ?v_109)) x_31) (= x_39 x_68)) ?v_110) ?v_111) (= x_87 (ite ?v_112 (ite (not (< x_96 3)) 3 x_96) x_62))) (= x_7 (or ?v_113 ?v_114))) (= x_8 (or ?v_115 ?v_116))) (= x_83 (or ?v_117 ?v_118))) ?v_119)) ?v_140) ?v_141) ?v_158) ?v_143) ?v_144) ?v_145) (and (and (and (and (and (and (and (or (and (and (and (and (and (and (and (and (and (and (and ?v_100 (or (or (and (and (and ?v_120 ?v_15) ?v_18) ?v_126) (and (and (and ?v_121 ?v_16) ?v_19) ?v_128)) (and (and ?v_112 ?v_123) ?v_129))) ?v_124) (or (or (or (or ?v_125 ?v_134) x_23) x_4) (not (< x_39 x_27)))) (or (or (or (or ?v_127 ?v_135) x_24) x_5) (not (< x_39 x_28)))) (or (or (or ?v_136 x_25) x_54) (not (< x_39 x_80)))) (or (or (or (and (and (and (and ?v_18 ?v_15) ?v_126) ?v_147) ?v_148) (and (and (and (and ?v_19 ?v_16) ?v_128) ?v_149) ?v_150)) (and (and (and (and ?v_123 ?v_112) ?v_129) ?v_151) ?v_152)) (and (< x_26 ?v_137) ?v_130))) (= x_33 (or x_23 ?v_131))) (= x_34 (or x_24 ?v_132))) (= x_35 (or x_25 ?v_133))) ?v_138) ?v_139) (and (and (and (and (and (and (and (and (and ?v_100 (or (or (or ?v_125 x_23) x_4) ?v_134)) (or (or (or ?v_127 x_24) x_5) ?v_135)) (or (or x_25 x_54) ?v_136)) x_32) (= x_39 ?v_137)) ?v_138) ?v_139) ?v_140) ?v_141)) ?v_156) ?v_157) ?v_119) ?v_142) ?v_143) ?v_144) ?v_145)) (and (and (and (and (and (and (and (or (and (and (and (and (and (and (and (and (and (and (and ?v_146 ?v_153) (not x_30)) (or (or (or ?v_125 x_58) x_4) (<= x_39 x_27))) (or (or (or ?v_127 x_60) x_5) (<= x_39 x_28))) (or (or x_56 x_54) (<= x_39 x_80))) (or (or (or (and (and (and (and (not x_58) ?v_15) (< x_29 x_27)) ?v_147) ?v_148) (and (and (and (and (not x_60) ?v_16) (< x_29 x_28)) ?v_149) ?v_150)) (and (and (and (not x_56) ?v_112) ?v_151) ?v_152)) ?v_130)) (= x_85 (or x_58 (= x_27 x_39)))) (= x_86 (or x_60 (= x_28 x_39)))) (= x_84 (or x_56 (= x_80 x_39)))) ?v_154) ?v_155) (and (and (and (and (and (and (and ?v_146 (not ?v_153)) x_30) ?v_154) ?v_155) (= x_39 x_29)) ?v_143) ?v_144)) ?v_156) ?v_157) ?v_119) ?v_142) ?v_140) ?v_141) ?v_158))) (or (or (and ?v_159 (= x_6 (ite (not x_21) x_3 1))) (and ?v_160 (= x_6 (ite ?v_186 x_3 2)))) (and (and ?v_14 ?v_13) (= x_6 x_3)))) (or (and (and ?v_163 ?v_161) (not (<= x_37 ?v_162))) (and ?v_165 (= x_37 x_27)))) (or (and (and ?v_163 ?v_164) (not (<= x_38 ?v_162))) (and ?v_165 (= x_38 x_28)))) (or (and (and ?v_163 (= x_36 (+ x_26 x_78))) x_97) (and (and ?v_165 (not x_97)) (= x_36 x_26)))) (or (and (and (and (and ?v_133 ?v_166) ?v_167) (< x_98 x_99)) (< x_99 x_100)) (and (and (and (not ?v_133) (= x_98 x_80)) (= x_99 x_81)) (= x_100 x_82)))) (or (or (and (and (and (and (and (and (or (and (and (and (and (and (and (and (and (and (and ?v_159 ?v_171) ?v_192) ?v_172) ?v_173) (= x_62 (ite ?v_174 (ite (not (< x_76 3)) 3 x_76) x_63))) (= x_4 ?v_175)) (= x_5 ?v_177)) (= x_54 ?v_179)) ?v_204) ?v_181) (and (and (and (and (and (and (and (and (and (and ?v_159 (not ?v_171)) x_21) (= x_29 x_53)) ?v_172) ?v_173) (= x_62 (ite ?v_174 (ite (not (< x_77 3)) 3 x_77) x_63))) (= x_4 (or ?v_175 ?v_176))) (= x_5 (or ?v_177 ?v_178))) (= x_54 (or ?v_179 ?v_180))) ?v_181)) ?v_202) ?v_203) ?v_220) ?v_205) ?v_206) ?v_207) (and (and (and (and (and (and (and (or (and (and (and (and (and (and (and (and (and (and (and ?v_160 (or (or (and (and (and ?v_182 ?v_22) ?v_25) ?v_188) (and (and (and ?v_183 ?v_23) ?v_26) ?v_190)) (and (and ?v_174 ?v_185) ?v_191))) ?v_186) (or (or (or (or ?v_187 ?v_196) x_12) x_1) (not (< x_29 x_16)))) (or (or (or (or ?v_189 ?v_197) x_13) x_2) (not (< x_29 x_17)))) (or (or (or ?v_198 x_14) x_55) (not (< x_29 x_69)))) (or (or (or (and (and (and (and ?v_25 ?v_22) ?v_188) ?v_209) ?v_210) (and (and (and (and ?v_26 ?v_23) ?v_190) ?v_211) ?v_212)) (and (and (and (and ?v_185 ?v_174) ?v_191) ?v_213) ?v_214)) (and (< x_15 ?v_199) ?v_192))) (= x_23 (or x_12 ?v_193))) (= x_24 (or x_13 ?v_194))) (= x_25 (or x_14 ?v_195))) ?v_200) ?v_201) (and (and (and (and (and (and (and (and (and ?v_160 (or (or (or ?v_187 x_12) x_1) ?v_196)) (or (or (or ?v_189 x_13) x_2) ?v_197)) (or (or x_14 x_55) ?v_198)) x_22) (= x_29 ?v_199)) ?v_200) ?v_201) ?v_202) ?v_203)) ?v_218) ?v_219) ?v_181) ?v_204) ?v_205) ?v_206) ?v_207)) (and (and (and (and (and (and (and (or (and (and (and (and (and (and (and (and (and (and (and ?v_208 ?v_215) (not x_20)) (or (or (or ?v_187 x_59) x_1) (<= x_29 x_16))) (or (or (or ?v_189 x_61) x_2) (<= x_29 x_17))) (or (or x_57 x_55) (<= x_29 x_69))) (or (or (or (and (and (and (and (not x_59) ?v_22) (< x_19 x_16)) ?v_209) ?v_210) (and (and (and (and (not x_61) ?v_23) (< x_19 x_17)) ?v_211) ?v_212)) (and (and (and (not x_57) ?v_174) ?v_213) ?v_214)) ?v_192)) (= x_58 (or x_59 (= x_16 x_29)))) (= x_60 (or x_61 (= x_17 x_29)))) (= x_56 (or x_57 (= x_69 x_29)))) ?v_216) ?v_217) (and (and (and (and (and (and (and ?v_208 (not ?v_215)) x_20) ?v_216) ?v_217) (= x_29 x_19)) ?v_205) ?v_206)) ?v_218) ?v_219) ?v_181) ?v_204) ?v_202) ?v_203) ?v_220))) (or (or (and ?v_221 (= x_3 (ite (not x_10) x_0 1))) (and ?v_222 (= x_3 (ite (not x_11) x_0 2)))) (and (and ?v_21 ?v_20) (= x_3 x_0)))) (or (and (and ?v_225 ?v_223) (not (<= x_27 ?v_224))) (and ?v_227 (= x_27 x_16)))) (or (and (and ?v_225 ?v_226) (not (<= x_28 ?v_224))) (and ?v_227 (= x_28 x_17)))) (or (and (and ?v_225 (= x_26 (+ x_15 x_78))) x_79) (and (and ?v_227 (not x_79)) (= x_26 x_15)))) (or (and (and (and (and ?v_195 ?v_228) ?v_229) (< x_80 x_81)) (< x_81 x_82)) (and (and (and (not ?v_195) (= x_80 x_69)) (= x_81 x_72)) (= x_82 x_75)))) ?v_60) (or x_47 x_48))))))))))))))))))))))))))
(check-sat)
(exit)
